QPLIB_2167
LGQ
minimize
192 # number of variables
183 # number of constraints
0.0 # default value for linear coefficients in objective
61 # number of non-default linear coefficients in objective
1 1.0
2 1.0
3 1.0
4 1.0
5 1.0
6 1.0
7 1.0
8 1.0
9 1.0
10 1.0
11 1.0
12 1.0
13 1.0
14 1.0
15 1.0
16 1.0
17 1.0
18 1.0
19 1.0
20 1.0
21 1.0
22 1.0
23 1.0
24 1.0
25 1.0
26 1.0
27 1.0
28 1.0
29 1.0
30 1.0
31 1.0
32 1.0
33 1.0
34 1.0
35 1.0
36 1.0
37 1.0
38 1.0
39 1.0
40 1.0
41 1.0
42 1.0
43 1.0
44 1.0
45 1.0
46 1.0
47 1.0
48 1.0
49 1.0
50 1.0
51 1.0
52 1.0
53 1.0
54 1.0
55 1.0
56 1.0
57 1.0
58 1.0
59 1.0
60 1.0
61 1.0
0.0 # objective constant
61 # number of quadratic terms in all constraints
123 24154833 1 2.0
124 1 1 2.0
125 23536417 305 2.0
126 1 1 2.0
127 113 34 2.0
128 1 1 2.0
129 -1420027015 -1443937695 2.0
130 32571 32571 2.0
131 24154833 1 2.0
132 1 1 2.0
133 305 1 2.0
134 1 1 2.0
135 113 1 2.0
136 1 1 2.0
137 23532097 -1443937695 2.0
138 32571 1 2.0
139 23535649 1 2.0
140 1 1 2.0
141 1 1 2.0
142 1 1 2.0
143 1 1 2.0
144 1 1 2.0
145 23532097 1 2.0
146 1 1 2.0
147 23535649 1 2.0
148 10 1 2.0
149 1 1 2.0
150 1 1 2.0
151 1 1 2.0
152 1027 1 2.0
153 23536129 1 2.0
154 1 1 2.0
155 34 1 2.0
156 10 1 2.0
157 1818576901 1 2.0
158 32625 1 2.0
159 1 -1420027015 2.0
160 32571 1027 2.0
161 23536129 33 2.0
162 1 1 2.0
163 50 34 2.0
164 1 1 2.0
165 1818576901 1651076122 2.0
166 1852403556 32625 2.0
167 1768711012 -1420027015 2.0
168 775173731 32571 2.0
169 1646292852 33 2.0
170 824209008 1 2.0
171 12321 50 2.0
172 1 1 2.0
173 1651076122 1 2.0
174 1852403556 1 2.0
175 1768711012 50 2.0
176 775173731 1 2.0
177 1651076122 1646292852 2.0
178 1852403556 824209008 2.0
179 1768711012 12321 2.0
180 775173731 1 2.0
181 1663070068 1 2.0
182 824206179 1 2.0
183 12321 50 2.0
679 # number of linear terms in all constraints
1 62 -71.0
1 63 -0.26
1 64 -9.0
1 65 -4.6
1 66 -14.0
1 67 -1.0
1 68 -1.0
1 69 1.0
1 70 -1.0
2 62 -72.0
2 63 -0.38
2 64 -6.0
2 65 -4.1
2 66 -14.0
2 67 -1.7
2 68 -0.588
2 69 1.0
2 71 -1.0
3 62 -55.0
3 63 -0.26
3 64 -4.0
3 65 -3.42
3 66 -14.0
3 67 -1.0
3 68 -1.0
3 69 1.0
3 72 -1.0
4 62 -60.0
4 63 -0.253
4 64 -12.062
4 65 -4.603
4 66 -16.0
4 67 -1.45
4 68 -0.788
4 69 1.0
4 73 -1.0
5 62 57.0
5 63 0.16
5 64 22.0
5 65 5.75
5 66 18.0
5 67 2.25
5 68 0.571
5 69 -1.0
5 74 -1.0
6 62 -68.0
6 63 -0.26
6 64 -5.0
6 65 -4.31
6 66 -12.0
6 67 -1.0
6 68 -0.857
6 69 1.0
6 75 -1.0
7 62 -62.0
7 63 -0.23
7 64 -31.0
7 65 -5.43
7 66 -22.5
7 67 -1.875
7 68 -0.857
7 69 1.0
7 76 -1.0
8 62 -60.0
8 63 -0.33
8 64 -8.0
8 65 -5.25
8 66 -14.0
8 67 -1.0
8 68 -1.0
8 69 1.0
8 77 -1.0
9 62 -46.0
9 63 -0.34
9 65 -5.09
9 66 -16.0
9 67 -1.14
9 68 -1.003
9 69 1.0
9 78 -1.0
10 62 -54.0
10 63 -0.14
10 64 -13.0
10 65 -4.49
10 66 -15.5
10 67 -1.19
10 68 -0.93
10 69 1.0
10 79 -1.0
11 62 77.0
11 63 0.13
11 64 16.0
11 65 4.23
11 66 18.0
11 67 1.8
11 68 0.714
11 69 -1.0
11 80 -1.0
12 62 -62.0
12 63 -0.45
12 64 -9.0
12 65 -3.6
12 66 -16.0
12 67 -1.14
12 68 -1.003
12 69 1.0
12 81 -1.0
12 82 -1.0
13 62 -73.0
13 63 -0.33
13 64 -6.0
13 65 -4.0
13 66 -14.0
13 67 -1.0
13 68 -1.0
13 69 1.0
13 83 -1.0
14 62 -60.0
14 63 -0.15
14 64 -10.0
14 65 -3.73
14 66 -14.0
14 67 -1.0
14 68 -1.0
14 69 1.0
14 84 -1.0
15 62 62.0
15 63 0.12
15 64 23.0
15 65 5.8
15 66 11.67
15 67 2.33
15 68 0.358
15 69 -1.0
15 85 -1.0
16 62 -55.0
16 63 -0.25
16 64 -12.063
16 65 -4.29
16 66 -14.0
16 67 -1.0
16 68 -1.0
16 69 1.0
16 81 -1.0
16 86 -1.0
17 62 69.0
17 63 0.26
17 64 11.0
17 65 4.65
17 66 18.0
17 67 1.64
17 68 0.784
17 69 -1.0
17 81 1.0
17 87 -1.0
18 62 62.529
18 63 0.07
18 64 20.0
18 65 5.2
18 66 24.0
18 67 2.0
18 68 0.857
18 69 -1.0
18 81 1.0
18 88 -1.0
19 62 66.0
19 63 0.09
19 64 17.0
19 65 5.819
19 66 8.0
19 67 1.333
19 68 0.429
19 69 -1.0
19 89 -1.0
20 62 66.0
20 63 0.22
20 64 15.0
20 65 5.4
20 66 27.0
20 67 2.25
20 68 0.857
20 69 -1.0
20 81 1.0
20 90 -1.0
21 62 69.0
21 63 0.15
21 64 12.0
21 65 5.39
21 66 19.5
21 67 1.625
21 68 0.857
21 69 -1.0
21 91 -1.0
22 62 85.0
22 63 0.18
22 64 19.0
22 65 5.46
22 66 13.83
22 67 1.38
22 68 0.71
22 69 -1.0
22 81 1.0
22 92 -1.0
23 62 73.0
23 63 0.23
23 64 12.733
23 65 6.06
23 66 7.5
23 67 1.5
23 68 0.36
23 69 -1.0
23 93 -1.0
24 62 71.0
24 63 0.17
24 65 4.65
24 66 8.0
24 67 1.0
24 68 0.57
24 69 -1.0
24 94 -1.0
25 62 -55.0
25 63 -0.21
25 64 -4.2
25 65 -4.16
25 66 -14.0
25 67 -1.56
25 68 -0.64
25 69 1.0
25 81 -1.0
25 95 -1.0
26 62 -61.0
26 63 -0.61
26 64 -13.1
26 65 -4.07
26 66 -13.0
26 67 -1.625
26 68 -0.571
26 69 1.0
26 96 -1.0
27 62 -54.0
27 63 -0.35
27 64 -9.3
27 65 -3.63
27 66 -11.0
27 67 -1.222
27 68 -0.64
27 69 1.0
27 97 -1.0
28 62 -70.0
28 63 -0.27
28 64 -4.7
28 65 -4.49
28 66 -22.0
28 67 -2.0
28 68 -0.786
28 69 1.0
28 81 -1.0
28 98 -1.0
29 62 -79.0
29 63 -0.15
29 64 -17.5
29 65 -4.27
29 66 -13.0
29 67 -1.3
29 68 -0.714
29 69 1.0
29 99 -1.0
30 62 59.0
30 63 0.03
30 64 21.3
30 65 6.29
30 66 17.0
30 67 1.31
30 68 0.928
30 69 -1.0
30 100 -1.0
31 62 -58.0
31 63 -0.3
31 64 -9.4
31 65 -3.49
31 66 -14.0
31 67 -1.0
31 68 -1.0
31 69 1.0
31 101 -1.0
32 62 60.0
32 63 0.01
32 64 24.6
32 65 5.65
32 66 39.0
32 67 3.0
32 68 0.928
32 69 -1.0
32 102 -1.0
33 62 -66.0
33 63 -0.29
33 64 -15.6
33 65 -6.15
33 66 -14.0
33 67 -1.0
33 68 -1.0
33 69 1.0
33 103 -1.0
34 62 -63.0
34 63 -0.15
34 64 -13.0
34 65 -4.57
34 66 -13.0
34 67 -1.08
34 68 -0.857
34 69 1.0
34 104 -1.0
35 62 -57.0
35 63 -0.13
35 64 -18.6
35 65 -4.37
35 66 -12.33
35 67 -1.37
35 68 -0.642
35 69 1.0
35 105 -1.0
36 62 -70.0
36 63 -0.1
36 64 -9.8
36 65 -5.3
36 66 -23.0
36 67 -2.3
36 68 -0.714
36 69 1.0
36 106 -1.0
37 62 -79.0
37 63 -0.17
37 64 -11.9
37 65 -5.15
37 66 -10.5
37 67 -1.05
37 68 -0.714
37 69 1.0
37 107 -1.0
38 62 -72.0
38 63 -0.187
38 64 -12.0
38 65 -5.02
38 66 -13.0
38 67 -1.18
38 68 -0.785
38 69 1.0
38 108 -1.0
39 62 -51.0
39 63 -0.16
39 64 -13.2
39 65 -5.26
39 66 -11.0
39 67 -1.0
39 68 -0.786
39 69 1.0
39 109 -1.0
40 62 -70.0
40 63 -0.25
40 64 -9.7
40 65 -5.57
40 66 -5.5
40 67 -1.1
40 68 -0.357
40 69 1.0
40 81 -1.0
40 110 -1.0
41 62 -65.0
41 63 -0.36
41 64 -8.8
41 65 -5.78
41 66 -12.0
41 67 -1.0
41 68 -0.857
41 69 1.0
41 111 -1.0
42 62 -78.0
42 63 -0.06
42 64 -16.1
42 65 -5.62
42 66 -13.67
42 67 -1.367
42 68 -0.714
42 69 1.0
42 112 -1.0
43 62 86.0
43 63 0.225
43 64 12.2
43 65 5.2
43 66 24.0
43 67 2.18
43 68 0.786
43 69 -1.0
43 113 -1.0
44 62 -56.0
44 63 -0.25
44 64 -11.0
44 65 -4.72
44 66 -11.0
44 67 -1.0
44 68 -0.785
44 69 1.0
44 114 -1.0
45 62 -60.0
45 63 -0.12
45 64 -10.2
45 65 -4.31
45 66 -15.0
45 67 -1.67
45 68 -0.64
45 69 1.0
45 115 -1.0
46 62 -59.0
46 63 -0.29
46 64 -7.5
46 65 -4.75
46 66 -13.0
46 67 -1.08
46 68 -0.857
46 69 1.0
46 116 -1.0
47 62 -54.0
47 63 -0.217
47 64 -17.9
47 65 -4.54
47 66 -16.5
47 67 -1.18
47 68 -1.0
47 69 1.0
47 117 -1.0
48 62 -64.0
48 63 -0.2
48 64 -7.1
48 65 -4.58
48 66 -14.0
48 67 -1.0
48 68 -1.0
48 69 1.0
48 118 -1.0
49 62 -54.0
49 63 -0.07
49 64 -16.8
49 65 -4.16
49 66 -18.0
49 67 -1.5
49 68 -0.857
49 69 1.0
49 81 -1.0
49 119 -1.0
50 62 78.0
50 63 0.05
50 64 10.0
50 65 4.44
50 66 15.0
50 67 1.36
50 68 0.786
50 69 -1.0
50 120 -1.0
51 62 -55.0
51 63 -0.28
51 64 -5.5
51 65 -4.48
51 66 -22.0
51 67 -1.83
51 68 -0.857
51 69 1.0
51 121 -1.0
52 62 -59.0
52 63 -0.344
52 64 -9.1
52 65 -4.04
52 66 -9.0
52 67 -1.0
52 68 -0.643
52 69 1.0
52 122 -1.0
53 62 74.0
53 63 0.2
53 64 4.8
53 65 4.56
53 66 12.5
53 67 1.04
53 68 0.857
53 69 -1.0
53 123 -1.0
54 62 65.0
54 63 0.16
54 64 8.5
54 65 5.47
54 66 16.0
54 67 1.45
54 68 0.786
54 69 -1.0
54 81 1.0
54 124 -1.0
55 62 58.0
55 63 0.17
55 64 28.9
55 65 6.73
55 66 26.08
55 67 2.01
55 68 0.928
55 69 -1.0
55 125 -1.0
56 62 -70.0
56 63 -0.38
56 65 -4.55
56 66 -10.0
56 67 -1.0
56 68 -0.714
56 69 1.0
56 126 -1.0
57 62 63.0
57 63 0.3
57 64 6.9
57 65 3.52
57 66 18.16
57 67 1.51
57 68 0.857
57 69 -1.0
57 127 -1.0
58 62 -59.0
58 63 -0.17
58 64 -14.3
58 65 -5.49
58 66 -13.5
58 67 -1.5
58 68 -0.643
58 69 1.0
58 128 -1.0
59 62 -57.0
59 63 -0.228
59 64 -9.7
59 65 -4.29
59 66 -11.0
59 67 -1.0
59 68 -0.786
59 69 1.0
59 129 -1.0
60 62 78.0
60 63 0.23
60 64 40.0
60 65 6.23
60 66 14.0
60 67 1.4
60 68 0.714
60 69 -1.0
60 130 -1.0
61 62 62.0
61 63 0.26
61 64 7.6
61 65 4.42
61 66 14.0
61 67 1.0
61 68 1.0
61 69 -1.0
61 131 -1.0
62 1 -1.0
62 132 -1.0
63 2 -1.0
63 133 -1.0
64 3 -1.0
64 134 -1.0
65 4 -1.0
65 135 -1.0
66 5 -1.0
66 136 -1.0
67 6 -1.0
67 137 -1.0
68 7 -1.0
68 138 -1.0
69 8 -1.0
69 139 -1.0
70 9 -1.0
70 140 -1.0
71 10 -1.0
71 141 -1.0
72 11 -1.0
72 142 -1.0
73 12 -1.0
73 143 -1.0
74 13 -1.0
74 144 -1.0
75 14 -1.0
75 145 -1.0
76 15 -1.0
76 146 -1.0
77 16 -1.0
77 147 -1.0
78 17 -1.0
78 148 -1.0
79 18 -1.0
79 149 -1.0
80 19 -1.0
80 150 -1.0
81 20 -1.0
81 151 -1.0
82 21 -1.0
82 152 -1.0
83 22 -1.0
83 153 -1.0
84 23 -1.0
84 154 -1.0
85 24 -1.0
85 155 -1.0
86 25 -1.0
86 156 -1.0
87 26 -1.0
87 157 -1.0
88 27 -1.0
88 158 -1.0
89 28 -1.0
89 159 -1.0
90 29 -1.0
90 160 -1.0
91 30 -1.0
91 161 -1.0
92 31 -1.0
92 162 -1.0
93 32 -1.0
93 163 -1.0
94 33 -1.0
94 164 -1.0
95 34 -1.0
95 165 -1.0
96 35 -1.0
96 166 -1.0
97 36 -1.0
97 167 -1.0
98 37 -1.0
98 168 -1.0
99 38 -1.0
99 169 -1.0
100 39 -1.0
100 170 -1.0
101 40 -1.0
101 171 -1.0
102 41 -1.0
102 172 -1.0
103 42 -1.0
103 173 -1.0
104 43 -1.0
104 174 -1.0
105 44 -1.0
105 175 -1.0
106 45 -1.0
106 176 -1.0
107 46 -1.0
107 177 -1.0
108 47 -1.0
108 178 -1.0
109 48 -1.0
109 179 -1.0
110 49 -1.0
110 180 -1.0
111 50 -1.0
111 181 -1.0
112 51 -1.0
112 182 -1.0
113 52 -1.0
113 183 -1.0
114 53 -1.0
114 184 -1.0
115 54 -1.0
115 185 -1.0
116 55 -1.0
116 186 -1.0
117 56 -1.0
117 187 -1.0
118 57 -1.0
118 188 -1.0
119 58 -1.0
119 189 -1.0
120 59 -1.0
120 190 -1.0
121 60 -1.0
121 191 -1.0
122 61 -1.0
122 192 -1.0
1.79769313486232E+308 # value for infinity
0.0 # default left-hand-side value
122 # number of non-default left-hand-sides
1 -1.79769313486232E+308
2 -1.79769313486232E+308
3 -1.79769313486232E+308
4 -1.79769313486232E+308
5 -1.79769313486232E+308
6 -1.79769313486232E+308
7 -1.79769313486232E+308
8 -1.79769313486232E+308
9 -1.79769313486232E+308
10 -1.79769313486232E+308
11 -1.79769313486232E+308
12 -1.79769313486232E+308
13 -1.79769313486232E+308
14 -1.79769313486232E+308
15 -1.79769313486232E+308
16 -1.79769313486232E+308
17 -1.79769313486232E+308
18 -1.79769313486232E+308
19 -1.79769313486232E+308
20 -1.79769313486232E+308
21 -1.79769313486232E+308
22 -1.79769313486232E+308
23 -1.79769313486232E+308
24 -1.79769313486232E+308
25 -1.79769313486232E+308
26 -1.79769313486232E+308
27 -1.79769313486232E+308
28 -1.79769313486232E+308
29 -1.79769313486232E+308
30 -1.79769313486232E+308
31 -1.79769313486232E+308
32 -1.79769313486232E+308
33 -1.79769313486232E+308
34 -1.79769313486232E+308
35 -1.79769313486232E+308
36 -1.79769313486232E+308
37 -1.79769313486232E+308
38 -1.79769313486232E+308
39 -1.79769313486232E+308
40 -1.79769313486232E+308
41 -1.79769313486232E+308
42 -1.79769313486232E+308
43 -1.79769313486232E+308
44 -1.79769313486232E+308
45 -1.79769313486232E+308
46 -1.79769313486232E+308
47 -1.79769313486232E+308
48 -1.79769313486232E+308
49 -1.79769313486232E+308
50 -1.79769313486232E+308
51 -1.79769313486232E+308
52 -1.79769313486232E+308
53 -1.79769313486232E+308
54 -1.79769313486232E+308
55 -1.79769313486232E+308
56 -1.79769313486232E+308
57 -1.79769313486232E+308
58 -1.79769313486232E+308
59 -1.79769313486232E+308
60 -1.79769313486232E+308
61 -1.79769313486232E+308
62 -1.0
63 -1.0
64 -1.0
65 -1.0
66 -1.0
67 -1.0
68 -1.0
69 -1.0
70 -1.0
71 -1.0
72 -1.0
73 -1.0
74 -1.0
75 -1.0
76 -1.0
77 -1.0
78 -1.0
79 -1.0
80 -1.0
81 -1.0
82 -1.0
83 -1.0
84 -1.0
85 -1.0
86 -1.0
87 -1.0
88 -1.0
89 -1.0
90 -1.0
91 -1.0
92 -1.0
93 -1.0
94 -1.0
95 -1.0
96 -1.0
97 -1.0
98 -1.0
99 -1.0
100 -1.0
101 -1.0
102 -1.0
103 -1.0
104 -1.0
105 -1.0
106 -1.0
107 -1.0
108 -1.0
109 -1.0
110 -1.0
111 -1.0
112 -1.0
113 -1.0
114 -1.0
115 -1.0
116 -1.0
117 -1.0
118 -1.0
119 -1.0
120 -1.0
121 -1.0
122 -1.0
-1.0 # default right-hand-side value
61 # number of non-default right-hand-sides
123 0.0
124 0.0
125 0.0
126 0.0
127 0.0
128 0.0
129 0.0
130 0.0
131 0.0
132 0.0
133 0.0
134 0.0
135 0.0
136 0.0
137 0.0
138 0.0
139 0.0
140 0.0
141 0.0
142 0.0
143 0.0
144 0.0
145 0.0
146 0.0
147 0.0
148 0.0
149 0.0
150 0.0
151 0.0
152 0.0
153 0.0
154 0.0
155 0.0
156 0.0
157 0.0
158 0.0
159 0.0
160 0.0
161 0.0
162 0.0
163 0.0
164 0.0
165 0.0
166 0.0
167 0.0
168 0.0
169 0.0
170 0.0
171 0.0
172 0.0
173 0.0
174 0.0
175 0.0
176 0.0
177 0.0
178 0.0
179 0.0
180 0.0
181 0.0
182 0.0
183 0.0
-1.79769313486232E+308 # default variable lower bound value
122 # number of non-default variable lower bounds
1 0.0
2 0.0
3 0.0
4 0.0
5 0.0
6 0.0
7 0.0
8 0.0
9 0.0
10 0.0
11 0.0
12 0.0
13 0.0
14 0.0
15 0.0
16 0.0
17 0.0
18 0.0
19 0.0
20 0.0
21 0.0
22 0.0
23 0.0
24 0.0
25 0.0
26 0.0
27 0.0
28 0.0
29 0.0
30 0.0
31 0.0
32 0.0
33 0.0
34 0.0
35 0.0
36 0.0
37 0.0
38 0.0
39 0.0
40 0.0
41 0.0
42 0.0
43 0.0
44 0.0
45 0.0
46 0.0
47 0.0
48 0.0
49 0.0
50 0.0
51 0.0
52 0.0
53 0.0
54 0.0
55 0.0
56 0.0
57 0.0
58 0.0
59 0.0
60 0.0
61 0.0
70 0.0
71 0.0
72 0.0
73 0.0
74 0.0
75 0.0
76 0.0
77 0.0
78 0.0
79 0.0
80 0.0
82 0.0
83 0.0
84 0.0
85 0.0
86 0.0
87 0.0
88 0.0
89 0.0
90 0.0
91 0.0
92 0.0
93 0.0
94 0.0
95 0.0
96 0.0
97 0.0
98 0.0
99 0.0
100 0.0
101 0.0
102 0.0
103 0.0
104 0.0
105 0.0
106 0.0
107 0.0
108 0.0
109 0.0
110 0.0
111 0.0
112 0.0
113 0.0
114 0.0
115 0.0
116 0.0
117 0.0
118 0.0
119 0.0
120 0.0
121 0.0
122 0.0
123 0.0
124 0.0
125 0.0
126 0.0
127 0.0
128 0.0
129 0.0
130 0.0
131 0.0
1.79769313486232E+308 # default variable upper bound value
61 # number of non-default variable upper bounds
1 1.0
2 1.0
3 1.0
4 1.0
5 1.0
6 1.0
7 1.0
8 1.0
9 1.0
10 1.0
11 1.0
12 1.0
13 1.0
14 1.0
15 1.0
16 1.0
17 1.0
18 1.0
19 1.0
20 1.0
21 1.0
22 1.0
23 1.0
24 1.0
25 1.0
26 1.0
27 1.0
28 1.0
29 1.0
30 1.0
31 1.0
32 1.0
33 1.0
34 1.0
35 1.0
36 1.0
37 1.0
38 1.0
39 1.0
40 1.0
41 1.0
42 1.0
43 1.0
44 1.0
45 1.0
46 1.0
47 1.0
48 1.0
49 1.0
50 1.0
51 1.0
52 1.0
53 1.0
54 1.0
55 1.0
56 1.0
57 1.0
58 1.0
59 1.0
60 1.0
61 1.0
0 # default variable type
61 # number of non-default variable types
1 1
2 1
3 1
4 1
5 1
6 1
7 1
8 1
9 1
10 1
11 1
12 1
13 1
14 1
15 1
16 1
17 1
18 1
19 1
20 1
21 1
22 1
23 1
24 1
25 1
26 1
27 1
28 1
29 1
30 1
31 1
32 1
33 1
34 1
35 1
36 1
37 1
38 1
39 1
40 1
41 1
42 1
43 1
44 1
45 1
46 1
47 1
48 1
49 1
50 1
51 1
52 1
53 1
54 1
55 1
56 1
57 1
58 1
59 1
60 1
61 1
0.0 # default variable primal value in starting point
0 # number of non-default variable primal values in starting point
0.0 # default constraint dual value in starting point
0 # number of non-default constraint dual values in starting point
0.0 # default variable bound dual value in starting point
0 # number of non-default variable bound dual values in starting point
0 # number of non-default variable names
0 # number of non-default constraint names
